# PYTHONPATH must include directory above plugin directory.
#     Define either externally or here, then import plugin.
sys.path.insert(0, './../../')
import fvno

molecule {
O
H 1 R
H 1 R 2 A

R = .9
A = 104.5
}

set {
  basis sto-3g
}

set fvno {
  print 1
}

e,wfn = energy('fvno', return_wfn='true')
cctransort(wfn)
ccenergy(wfn)
cchbar(wfn)
set_global_option('WFN','CCSD') # cclambda expects a correlated wfn method         
set_global_option('DERTYPE','RESPONSE') # to account for extra terms in cclambda needed for response 
cclambda(wfn)
set ccresponse{
 property polarizability
}
ccresponse(wfn)

fvno.exampleFN()
